(declare-const term_to_project_onto0_integralized Int)
(declare-const term_to_project_onto_integralized Int)
(declare-const term_to_project_onto1_integralized Int)
(declare-const term_to_project_onto3_integralized Int)
(declare-const term_to_project_onto2_integralized Int)
(declare-const tmp Int)
(assert (exists
         ((|tmp'?1?1| Int) (|k'?2?2| Int) (|z'?3?3| Int) (|y'?4?4| Int)
            (|x'?5?5| Int) (phi_x?6?6 Int) (rem?7?7 Int) (havoc?8?8 Int)
            (z?9?9 Int) (k?10?10 Int) (x?11?11 Int) (y?12?12 Int)
            (standardize_int?13 Int) (standardize_int?14 Int)
            (quotient_integralized?15 Int) (quotient_integralized?16 Int))
         (and (<= (- z?9?9) 0) (<= (- k?10?10) 0) (<= (- x?11?11) 0)
                (<= (- y?12?12) 0)
                (= (+ y?12?12 x?11?11 (- k?10?10) z?9?9) 0)
                (<= (+ y?12?12 -100000) 0)
                (or (<= (+ havoc?8?8 1) 0) (<= (+ (- havoc?8?8) 1) 0))
                (or (and (or (<= k?10?10 0)
                               (and (<= (- rem?7?7) 0)
                                      (or (<= (+ rem?7?7 1) 0)
                                            (<= (+ (- rem?7?7) 1) 0))
                                      (or (<= (+ rem?7?7 -2) 0)
                                            (<= (+ rem?7?7 2) 0))
                                      (= standardize_int?13 quotient_integralized?15)))
                           (= (+ (- phi_x?6?6) x?11?11) 0))
                      (and (= standardize_int?14 quotient_integralized?16)
                             (<= (- k?10?10) 0)
                             (= (+ (- phi_x?6?6) x?11?11 1) 0)))
                (= (+ |tmp'?1?1| (- havoc?8?8)) 0)
                (= (+ |k'?2?2| (- phi_x?6?6) (- y?12?12) (- z?9?9) -2) 0)
                (= (+ |z'?3?3| (- z?9?9) -1) 0)
                (= (+ |y'?4?4| (- y?12?12) -1) 0)
                (= (+ |x'?5?5| (- phi_x?6?6)) 0)
                (= (+ term_to_project_onto3_integralized
                        (- (+ |x'?5?5| (- x?11?11)))) 0)
                (= (+ term_to_project_onto2_integralized
                        (- (+ |y'?4?4| (- y?12?12)))) 0)
                (= (+ term_to_project_onto1_integralized
                        (- (+ |z'?3?3| (- z?9?9)))) 0)
                (= (+ term_to_project_onto0_integralized
                        (- (+ |k'?2?2| (- k?10?10)))) 0)
                (= (+ term_to_project_onto_integralized
                        (- (+ |tmp'?1?1| (- tmp)))) 0)
                (= k?10?10 (* 3 quotient_integralized?16))
                (= (+ k?10?10 (- rem?7?7)) (* 3 quotient_integralized?15)))))
(check-sat)